WARNING: for repeatability, setting FPU to use double precision
============================[ Problem Statistics ]=============================
|                                                                             |
|  Number of variables:           100                                         |
|  Number of clauses:             449                                         |
|  Parse time:                   0.00 s                                       |
|  Simplification time:          0.00 s                                       |
|                                                                             |
============================[ Search Statistics ]==============================
| Conflicts |          ORIGINAL         |          LEARNT          | Progress |
|           |    Vars  Clauses Literals |    Limit  Clauses Lit/Cl |          |
===============================================================================
|       100 |     100      449     1347 |      164      100      6 |  0.010 % |
===============================================================================
restarts              : 2
conflicts             : 156            (57290 /sec)
decisions             : 211            (0.00 % random) (77488 /sec)
propagations          : 3794           (1393316 /sec)
conflict literals     : 1068           (16.69 % deleted)
Memory used           : 13.00 MB
CPU time              : 0.002723 s

SATISFIABLE
